NAME: random_points
TYPE: TSP
DIMENSION: 64
EDGE_WEIGHT_TYPE: EUC_2D
NODE_COORD_SECTION
1 859 780
2 869 972
3 220 249
4 203 499
5 546 284
6 240 756
7 0 124
8 302 137
9 769 112
10 349 667
11 865 895
12 582 513
13 948 8
14 376 966
15 215 39
16 745 142
17 980 326
18 105 841
19 878 801
20 940 695
21 26 364
22 571 779
23 334 871
24 798 600
25 210 245
26 745 432
27 477 812
28 387 756
29 405 931
30 206 789
31 866 756
32 422 730
33 855 623
34 600 645
35 817 599
36 697 726
37 189 67
38 422 103
39 944 209
40 299 805
41 202 255
42 222 548
43 128 596
44 772 367
45 589 61
46 836 982
47 789 907
48 190 544
49 365 277
50 843 516
51 748 940
52 472 500
53 54 198
54 885 481
55 808 421
56 847 3
57 929 787
58 742 7
59 486 292
60 387 13
61 838 811
62 564 953
63 309 181
64 413 381
EOF
